c Result of efficient AIG-to-CNF conversion using package CNF
p cnf 522 1855
-2 3 352 405 431 0
2 -431 0
2 -3 0
2 -405 0
2 -352 0
-3 4 200 211 222 0
-3 4 -200 -211 222 0
3 -222 0
3 -200 211 0
3 -4 0
3 200 -211 0
-4 -5 -94 110 0
-4 5 94 110 0
4 -110 0
4 -5 94 0
4 5 -94 0
5 486 -6 76 0
5 -486 76 -87 0
-5 -76 0
-5 -486 87 0
-5 486 6 0
6 -487 -7 0
6 487 -50 0
-6 487 50 0
-6 -487 7 0
7 488 -8 0
7 -488 -42 0
-7 -488 42 0
-7 488 8 0
8 489 -9 0
8 -489 -35 0
-8 -489 35 0
-8 489 9 0
9 10 -22 0
-9 -10 0
-9 22 0
-10 517 11 0
10 -517 0
10 -11 0
-11 12 18 20 21 0
11 -21 0
11 -12 0
11 -20 0
11 -18 0
-12 514 515 13 15 0
12 -514 0
12 -15 0
12 -13 0
12 -515 0
-13 506 512 513 14 0
13 -14 0
13 -513 0
13 -506 0
13 -512 0
-14 510 511 516 0
14 -510 0
14 -516 0
14 -511 0
-15 502 503 16 17 0
15 -502 0
15 -17 0
15 -16 0
15 -503 0
-16 507 508 509 0
16 -507 0
16 -509 0
16 -508 0
-17 498 499 504 505 0
17 -505 0
17 -504 0
17 -498 0
17 -499 0
-18 496 500 501 19 0
18 -19 0
18 -501 0
18 -496 0
18 -500 0
-19 494 495 0
19 -494 0
19 -495 0
-20 490 497 0
20 -490 0
20 -497 0
-21 491 492 493 0
21 -491 0
21 -493 0
21 -492 0
22 518 -23 0
22 -518 -30 0
-22 -518 30 0
-22 518 23 0
23 519 -24 0
23 -519 -27 0
-23 -519 27 0
-23 519 24 0
24 520 -25 0
24 -520 -26 0
-24 -520 26 0
-24 520 25 0
25 -470 521 0
25 -469 -521 0
-25 470 521 0
-25 469 -521 0
26 -468 521 0
26 -467 -521 0
-26 468 521 0
-26 467 -521 0
27 520 -28 0
27 -520 -29 0
-27 -520 29 0
-27 520 28 0
28 -466 521 0
28 -465 -521 0
-28 466 521 0
-28 465 -521 0
29 -464 521 0
29 -463 -521 0
-29 464 521 0
-29 463 -521 0
30 519 -31 0
30 -519 520 -34 0
-30 -519 -520 0
-30 519 31 0
-30 -519 34 0
31 520 -32 0
31 -520 -33 0
-31 -520 33 0
-31 520 32 0
32 -462 521 0
32 -461 -521 0
-32 462 521 0
-32 461 -521 0
33 -460 521 0
33 -459 -521 0
-33 460 521 0
-33 459 -521 0
34 -458 521 0
-34 458 0
-34 -521 0
35 10 -36 0
-35 -10 0
-35 36 0
36 518 -37 0
36 -518 -40 0
-36 -518 40 0
-36 518 37 0
37 519 -38 0
37 -519 -39 0
-37 -519 39 0
-37 519 38 0
38 520 -26 0
38 -520 -28 0
-38 -520 28 0
-38 520 26 0
39 520 -29 0
39 -520 -32 0
-39 -520 32 0
-39 520 29 0
40 519 -41 0
-40 -519 0
-40 41 0
41 520 -33 0
41 -520 -34 0
-41 -520 34 0
-41 520 33 0
42 489 -43 0
42 -489 -47 0
-42 -489 47 0
-42 489 43 0
43 10 -44 0
-43 -10 0
-43 44 0
44 518 -45 0
44 -518 -46 0
-44 -518 46 0
-44 518 45 0
45 519 -27 0
45 -519 -31 0
-45 -519 31 0
-45 519 27 0
46 519 520 -34 0
-46 34 0
-46 -520 0
-46 -519 0
47 10 -48 0
-47 -10 0
-47 48 0
48 518 -49 0
-48 -518 0
-48 49 0
49 519 -39 0
49 -519 -41 0
-49 -519 41 0
-49 519 39 0
50 488 -51 0
50 -488 -68 0
-50 -488 68 0
-50 488 51 0
51 489 -52 0
51 -489 -62 0
-51 -489 62 0
-51 489 52 0
52 -517 11 -61 0
52 517 11 -53 0
-52 -11 0
-52 -517 61 0
-52 517 53 0
53 -518 -23 0
53 518 -54 0
-53 518 54 0
-53 -518 23 0
54 519 -55 0
54 -519 -58 0
-54 -519 58 0
-54 519 55 0
55 520 -56 0
55 -520 -57 0
-55 -520 57 0
-55 520 56 0
56 -478 521 0
56 -477 -521 0
-56 478 521 0
-56 477 -521 0
57 -476 521 0
57 -475 -521 0
-57 476 521 0
-57 475 -521 0
58 520 -59 0
58 -520 -60 0
-58 -520 60 0
-58 520 59 0
59 -474 521 0
59 -473 -521 0
-59 474 521 0
-59 473 -521 0
60 -472 521 0
60 -471 -521 0
-60 472 521 0
-60 471 -521 0
61 518 -30 0
-61 -518 0
-61 30 0
62 -517 11 -67 0
62 517 11 -63 0
-62 -11 0
-62 -517 67 0
-62 517 63 0
63 -518 -37 0
63 518 -64 0
-63 518 64 0
-63 -518 37 0
64 519 -65 0
64 -519 -66 0
-64 -519 66 0
-64 519 65 0
65 520 -57 0
65 -520 -59 0
-65 -520 59 0
-65 520 57 0
66 -520 -25 0
66 520 -60 0
-66 520 60 0
-66 -520 25 0
67 518 -40 0
-67 -518 0
-67 40 0
68 489 -69 0
68 -489 -73 0
-68 -489 73 0
-68 489 69 0
69 -517 11 -72 0
69 517 11 -70 0
-69 -11 0
-69 -517 72 0
-69 517 70 0
70 -518 -45 0
70 518 -71 0
-70 518 71 0
-70 -518 45 0
71 -519 -24 0
71 519 -58 0
-71 519 58 0
-71 -519 24 0
72 518 -46 0
-72 -518 0
-72 46 0
73 10 -74 0
-73 -10 0
-73 74 0
74 -518 -49 0
74 518 -75 0
-74 518 75 0
-74 -518 49 0
75 -519 -38 0
75 519 -66 0
-75 519 66 0
-75 -519 38 0
-76 77 79 0
76 -77 0
76 -79 0
-77 483 484 485 78 0
77 -78 0
77 -485 0
77 -483 0
77 -484 0
-78 480 481 482 0
78 -480 0
78 -482 0
78 -481 0
-79 80 82 83 0
79 -80 0
79 -82 0
79 -83 0
-80 471 472 81 0
80 -81 0
80 -472 0
80 -471 0
-81 467 468 469 470 0
81 -470 0
81 -469 0
81 -467 0
81 -468 0
-82 459 460 461 462 0
82 -462 0
82 -461 0
82 -459 0
82 -460 0
-83 464 465 84 86 0
83 -464 0
83 -86 0
83 -84 0
83 -465 0
-84 473 474 475 85 0
84 -85 0
84 -475 0
84 -473 0
84 -474 0
-85 476 477 478 479 0
85 -479 0
85 -478 0
85 -476 0
85 -477 0
-86 463 466 0
86 -463 0
86 -466 0
87 487 -88 0
-87 -487 0
-87 88 0
88 488 -89 0
88 -488 -92 0
-88 -488 92 0
-88 488 89 0
89 489 -90 0
89 -489 -91 0
-89 -489 91 0
-89 489 90 0
90 10 -61 0
-90 -10 0
-90 61 0
91 10 -67 0
-91 -10 0
-91 67 0
92 489 -93 0
-92 -489 0
-92 93 0
93 10 -72 0
-93 -10 0
-93 72 0
94 -95 106 -107 0
94 95 -96 106 0
-94 -106 0
-94 95 96 0
-94 -95 107 0
-95 486 517 0
95 -486 0
95 -517 0
96 97 -98 0
96 -97 -103 0
-96 -97 103 0
-96 97 98 0
-97 487 518 0
97 -487 0
97 -518 0
98 99 -100 0
98 -99 -102 0
-98 -99 102 0
-98 99 100 0
-99 488 519 0
99 -488 0
99 -519 0
100 -57 -101 0
100 -56 101 0
-100 57 -101 0
-100 56 101 0
-101 489 520 0
101 -489 0
101 -520 0
102 -60 -101 0
102 -59 101 0
-102 60 -101 0
-102 59 101 0
103 99 -104 0
103 -99 -105 0
-103 -99 105 0
-103 99 104 0
104 -26 -101 0
104 -25 101 0
-104 26 -101 0
-104 25 101 0
105 -29 -101 0
105 -28 101 0
-105 29 -101 0
-105 28 101 0
-106 11 76 0
106 -11 0
106 -76 0
107 97 -108 0
-107 -97 0
-107 108 0
108 99 -109 0
108 -34 -99 101 0
-108 -99 -101 0
-108 99 109 0
-108 34 -99 0
109 -33 -101 0
109 -32 101 0
-109 33 -101 0
-109 32 101 0
-110 111 177 -188 -194 0
-110 -111 -177 -188 -194 0
-110 111 177 188 194 0
-110 -111 -177 188 194 0
110 111 -177 0
110 -111 177 0
110 188 -194 0
110 -188 194 0
111 -486 76 -170 0
111 486 76 -112 0
-111 -76 0
-111 -486 170 0
-111 486 112 0
112 -487 -113 0
112 487 -144 0
-112 487 144 0
-112 -487 113 0
113 488 -114 0
113 -488 -136 0
-113 -488 136 0
-113 488 114 0
114 489 -115 0
114 -489 -129 0
-114 -489 129 0
-114 489 115 0
115 10 -116 0
-115 -10 0
-115 116 0
116 518 -117 0
116 -518 -124 0
-116 -518 124 0
-116 518 117 0
117 519 -118 0
117 -519 -121 0
-117 -519 121 0
-117 519 118 0
118 520 -119 0
118 -520 -120 0
-118 -520 120 0
-118 520 119 0
119 -471 521 0
119 -470 -521 0
-119 471 521 0
-119 470 -521 0
120 -469 521 0
120 -468 -521 0
-120 469 521 0
-120 468 -521 0
121 520 -122 0
121 -520 -123 0
-121 -520 123 0
-121 520 122 0
122 -467 521 0
122 -466 -521 0
-122 467 521 0
-122 466 -521 0
123 -465 521 0
123 -464 -521 0
-123 465 521 0
-123 464 -521 0
124 519 -125 0
124 -519 520 -128 0
-124 -519 -520 0
-124 519 125 0
-124 -519 128 0
125 520 -126 0
125 -520 -127 0
-125 -520 127 0
-125 520 126 0
126 -463 521 0
126 -462 -521 0
-126 463 521 0
-126 462 -521 0
127 -461 521 0
127 -460 -521 0
-127 461 521 0
-127 460 -521 0
128 -459 521 0
128 -458 -521 0
-128 459 521 0
-128 458 -521 0
129 10 -130 0
-129 -10 0
-129 130 0
130 518 -131 0
130 -518 -134 0
-130 -518 134 0
-130 518 131 0
131 519 -132 0
131 -519 -133 0
-131 -519 133 0
-131 519 132 0
132 520 -120 0
132 -520 -122 0
-132 -520 122 0
-132 520 120 0
133 520 -123 0
133 -520 -126 0
-133 -520 126 0
-133 520 123 0
134 519 -135 0
-134 -519 0
-134 135 0
135 520 -127 0
135 -520 -128 0
-135 -520 128 0
-135 520 127 0
136 489 -137 0
136 -489 -141 0
-136 -489 141 0
-136 489 137 0
137 10 -138 0
-137 -10 0
-137 138 0
138 518 -139 0
138 -518 -140 0
-138 -518 140 0
-138 518 139 0
139 519 -121 0
139 -519 -125 0
-139 -519 125 0
-139 519 121 0
140 519 520 -128 0
-140 128 0
-140 -520 0
-140 -519 0
141 10 -142 0
-141 -10 0
-141 142 0
142 518 -143 0
-142 -518 0
-142 143 0
143 519 -133 0
143 -519 -135 0
-143 -519 135 0
-143 519 133 0
144 488 -145 0
144 -488 -162 0
-144 -488 162 0
-144 488 145 0
145 489 -146 0
145 -489 -156 0
-145 -489 156 0
-145 489 146 0
146 -517 11 -155 0
146 517 11 -147 0
-146 -11 0
-146 -517 155 0
-146 517 147 0
147 -518 -117 0
147 518 -148 0
-147 518 148 0
-147 -518 117 0
148 519 -149 0
148 -519 -152 0
-148 -519 152 0
-148 519 149 0
149 520 -150 0
149 -520 -151 0
-149 -520 151 0
-149 520 150 0
150 -479 521 0
150 -478 -521 0
-150 479 521 0
-150 478 -521 0
151 -477 521 0
151 -476 -521 0
-151 477 521 0
-151 476 -521 0
152 520 -153 0
152 -520 -154 0
-152 -520 154 0
-152 520 153 0
153 -475 521 0
153 -474 -521 0
-153 475 521 0
-153 474 -521 0
154 -473 521 0
154 -472 -521 0
-154 473 521 0
-154 472 -521 0
155 518 -124 0
-155 -518 0
-155 124 0
156 -517 11 -161 0
156 517 11 -157 0
-156 -11 0
-156 -517 161 0
-156 517 157 0
157 -518 -131 0
157 518 -158 0
-157 518 158 0
-157 -518 131 0
158 519 -159 0
158 -519 -160 0
-158 -519 160 0
-158 519 159 0
159 520 -151 0
159 -520 -153 0
-159 -520 153 0
-159 520 151 0
160 -520 -119 0
160 520 -154 0
-160 520 154 0
-160 -520 119 0
161 518 -134 0
-161 -518 0
-161 134 0
162 489 -163 0
162 -489 -167 0
-162 -489 167 0
-162 489 163 0
163 -517 11 -166 0
163 517 11 -164 0
-163 -11 0
-163 -517 166 0
-163 517 164 0
164 -518 -139 0
164 518 -165 0
-164 518 165 0
-164 -518 139 0
165 -519 -118 0
165 519 -152 0
-165 519 152 0
-165 -519 118 0
166 518 -140 0
-166 -518 0
-166 140 0
167 10 -168 0
-167 -10 0
-167 168 0
168 -518 -143 0
168 518 -169 0
-168 518 169 0
-168 -518 143 0
169 -519 -132 0
169 519 -160 0
-169 519 160 0
-169 -519 132 0
170 487 -171 0
-170 -487 0
-170 171 0
171 488 -172 0
171 -488 -175 0
-171 -488 175 0
-171 488 172 0
172 489 -173 0
172 -489 -174 0
-172 -489 174 0
-172 489 173 0
173 10 -155 0
-173 -10 0
-173 155 0
174 10 -161 0
-174 -10 0
-174 161 0
175 489 -176 0
-175 -489 0
-175 176 0
176 10 -166 0
-176 -10 0
-176 166 0
177 -95 106 -185 0
177 95 106 -178 0
-177 -106 0
-177 95 178 0
-177 -95 185 0
178 97 -179 0
178 -97 -182 0
-178 -97 182 0
-178 97 179 0
179 99 -180 0
179 -99 -181 0
-179 -99 181 0
-179 99 180 0
180 101 -150 0
180 -101 -151 0
-180 -101 151 0
-180 101 150 0
181 101 -153 0
181 -101 -154 0
-181 -101 154 0
-181 101 153 0
182 99 -183 0
182 -99 -184 0
-182 -99 184 0
-182 99 183 0
183 101 -119 0
183 -101 -120 0
-183 -101 120 0
-183 101 119 0
184 101 -122 0
184 -101 -123 0
-184 -101 123 0
-184 101 122 0
185 97 -186 0
-185 -97 0
-185 186 0
186 99 -187 0
186 -99 101 -128 0
-186 99 187 0
-186 -99 128 0
-186 -99 -101 0
187 101 -126 0
187 -101 -127 0
-187 -101 127 0
-187 101 126 0
188 -486 76 -192 0
188 486 76 -189 0
-188 -76 0
-188 -486 192 0
-188 486 189 0
189 -487 -190 0
189 487 -191 0
-189 487 191 0
-189 -487 190 0
190 488 -136 0
190 -488 -172 0
-190 -488 172 0
-190 488 136 0
191 -488 -114 0
191 488 -162 0
-191 488 162 0
-191 -488 114 0
192 487 -193 0
-192 -487 0
-192 193 0
193 488 -175 0
-193 -488 0
-193 175 0
194 -95 106 -198 0
194 95 106 -195 0
-194 -106 0
-194 95 195 0
-194 -95 198 0
195 97 -196 0
195 -97 -197 0
-195 -97 197 0
-195 97 196 0
196 99 -181 0
196 -99 -183 0
-196 -99 183 0
-196 99 181 0
197 99 -184 0
197 -99 -187 0
-197 -99 187 0
-197 99 184 0
198 97 -199 0
-198 -97 0
-198 199 0
199 99 101 -128 0
-199 -99 0
-199 -101 0
-199 128 0
200 -486 76 -208 0
200 486 76 -201 0
-200 -76 0
-200 -486 208 0
-200 486 201 0
201 -487 -202 0
201 487 -205 0
-201 487 205 0
-201 -487 202 0
202 488 -203 0
202 -488 -204 0
-202 -488 204 0
-202 488 203 0
203 489 -35 0
203 -489 -43 0
-203 -489 43 0
-203 489 35 0
204 489 -47 0
204 -489 -90 0
-204 -489 90 0
-204 489 47 0
205 488 -206 0
205 -488 -207 0
-205 -488 207 0
-205 488 206 0
206 489 -62 0
206 -489 -69 0
-206 -489 69 0
-206 489 62 0
207 -489 -9 0
207 489 -73 0
-207 489 73 0
-207 -489 9 0
208 487 -209 0
-208 -487 0
-208 209 0
209 488 -210 0
-209 -488 0
-209 210 0
210 489 -91 0
210 -489 -93 0
-210 -489 93 0
-210 489 91 0
211 -95 106 -219 0
211 95 106 -212 0
-211 -106 0
-211 95 212 0
-211 -95 219 0
212 97 -213 0
212 -97 -216 0
-212 -97 216 0
-212 97 213 0
213 99 -214 0
213 -99 -215 0
-213 -99 215 0
-213 99 214 0
214 -59 -101 0
214 -57 101 0
-214 59 -101 0
-214 57 101 0
215 -60 101 0
215 -25 -101 0
-215 25 -101 0
-215 60 101 0
216 99 -217 0
216 -99 -218 0
-216 -99 218 0
-216 99 217 0
217 -28 -101 0
217 -26 101 0
-217 28 -101 0
-217 26 101 0
218 -32 -101 0
218 -29 101 0
-218 32 -101 0
-218 29 101 0
219 97 -220 0
-219 -97 0
-219 220 0
220 99 -221 0
-220 -99 0
-220 221 0
221 -34 -101 0
221 -33 101 0
-221 34 -101 0
-221 33 101 0
-222 -223 268 316 0
-222 258 268 316 0
222 -316 0
222 -268 0
222 223 -258 0
223 486 76 -227 0
223 -486 76 -224 0
-223 -76 0
-223 -486 224 0
-223 486 227 0
224 487 -225 0
224 -487 -226 0
-224 -487 226 0
-224 487 225 0
225 -488 -203 0
225 488 -207 0
-225 488 207 0
-225 -488 203 0
226 488 -204 0
226 -488 -210 0
-226 -488 210 0
-226 488 204 0
227 -487 -228 0
227 487 -235 0
-227 487 235 0
-227 -487 228 0
228 -488 -206 0
228 488 -229 0
-228 488 229 0
-228 -488 206 0
229 -489 -52 0
229 489 -230 0
-229 489 230 0
-229 -489 52 0
230 517 11 -231 0
230 -517 11 -48 0
-230 -11 0
-230 -517 48 0
-230 517 231 0
231 -518 -75 0
231 518 -232 0
-231 518 232 0
-231 -518 75 0
232 -519 -65 0
232 519 -233 0
-232 519 233 0
-232 -519 65 0
233 -520 -56 0
233 520 -234 0
-233 520 234 0
-233 -520 56 0
234 -480 521 0
234 -479 -521 0
-234 480 521 0
-234 479 -521 0
235 -488 -251 0
235 488 -236 0
-235 488 236 0
-235 -488 251 0
-236 -489 237 0
-236 489 245 0
-236 489 -11 0
236 -489 -237 0
236 489 11 -245 0
237 517 11 -238 0
237 -517 11 -22 0
-237 -11 0
-237 517 238 0
-237 -517 22 0
-238 -518 54 0
-238 518 239 0
238 -518 -54 0
238 518 -239 0
-239 519 240 0
-239 -519 243 0
239 -519 -243 0
239 519 -240 0
-240 520 242 0
-240 -520 241 0
240 -520 -241 0
240 520 -242 0
241 -484 521 0
241 -483 -521 0
-241 484 521 0
-241 483 -521 0
242 -486 521 0
242 -485 -521 0
-242 486 521 0
-242 485 -521 0
243 -520 -234 0
243 520 -244 0
-243 520 244 0
-243 -520 234 0
244 -482 521 0
244 -481 -521 0
-244 482 521 0
-244 481 -521 0
-245 517 246 0
-245 -517 74 0
245 -517 -74 0
245 517 -246 0
246 -518 -232 0
246 518 -247 0
-246 518 247 0
-246 -518 232 0
247 519 -248 0
247 -519 -250 0
-247 -519 250 0
-247 519 248 0
248 -520 -242 0
248 520 -249 0
-248 520 249 0
-248 -520 242 0
249 -488 521 0
249 -487 -521 0
-249 488 521 0
-249 487 -521 0
250 520 -241 0
250 -520 -244 0
-250 -520 244 0
-250 520 241 0
251 489 -252 0
251 -489 -255 0
-251 -489 255 0
-251 489 252 0
252 517 11 -253 0
252 -517 11 -36 0
-252 -11 0
-252 517 253 0
-252 -517 36 0
-253 -518 64 0
-253 518 254 0
253 -518 -64 0
253 518 -254 0
-254 519 250 0
-254 -519 233 0
254 -519 -233 0
254 519 -250 0
255 517 11 -256 0
255 -517 11 -44 0
-255 -11 0
-255 517 256 0
-255 -517 44 0
-256 -518 71 0
-256 518 257 0
256 -518 -71 0
256 518 -257 0
-257 519 243 0
-257 -519 55 0
257 -519 -55 0
257 519 -243 0
258 -95 106 -265 0
258 95 106 -259 0
-258 -106 0
-258 95 259 0
-258 -95 265 0
-259 97 260 0
-259 -97 263 0
259 97 -260 0
259 -97 -263 0
-260 99 261 0
-260 -99 262 0
260 99 -261 0
260 -99 -262 0
-261 101 249 0
-261 -101 242 0
261 -101 -242 0
261 101 -249 0
262 101 -241 0
262 -101 -244 0
-262 -101 244 0
-262 101 241 0
263 -99 -214 0
263 99 -264 0
-263 99 264 0
-263 -99 214 0
264 101 -234 0
264 -56 -101 0
-264 101 234 0
-264 56 -101 0
265 97 -266 0
265 -97 -267 0
-265 -97 267 0
-265 97 266 0
266 99 -215 0
266 -99 -217 0
-266 -99 217 0
-266 99 215 0
267 99 -218 0
267 -99 -221 0
-267 -99 221 0
-267 99 218 0
-268 269 275 281 303 0
-268 -269 -275 281 303 0
268 -303 0
268 -269 275 0
268 -281 0
268 269 -275 0
269 -486 76 -273 0
269 486 76 -270 0
-269 -76 0
-269 -486 273 0
-269 486 270 0
270 -487 -271 0
270 487 -272 0
-270 487 272 0
-270 -487 271 0
271 488 -42 0
271 -488 -89 0
-271 -488 89 0
-271 488 42 0
272 -488 -8 0
272 488 -68 0
-272 488 68 0
-272 -488 8 0
273 487 -274 0
-273 -487 0
-273 274 0
274 488 -92 0
-274 -488 0
-274 92 0
275 -95 106 -279 0
275 95 106 -276 0
-275 -106 0
-275 95 276 0
-275 -95 279 0
276 97 -277 0
276 -97 -278 0
-276 -97 278 0
-276 97 277 0
277 99 -102 0
277 -99 -104 0
-277 -99 104 0
-277 99 102 0
278 99 -105 0
278 -99 -109 0
-278 -99 109 0
-278 99 105 0
279 97 -280 0
-279 -97 0
-279 280 0
280 -34 99 101 0
-280 34 0
-280 -99 0
-280 -101 0
-281 282 286 -289 -296 0
-281 -282 -286 -289 -296 0
-281 282 286 289 296 0
-281 -282 -286 289 296 0
281 282 -286 0
281 -282 286 0
281 289 -296 0
281 -289 296 0
282 283 -285 0
-282 -283 0
-282 285 0
-283 79 284 0
283 -79 0
283 -284 0
-284 486 77 0
284 -486 0
284 -77 0
285 487 -271 0
285 -487 -274 0
-285 -487 274 0
-285 487 271 0
286 287 -288 0
-286 -287 0
-286 288 0
-287 95 106 0
287 -95 0
287 -106 0
288 97 -278 0
288 -97 -280 0
-288 -97 280 0
-288 97 278 0
289 283 -290 0
-289 -283 0
-289 290 0
290 487 -291 0
290 -487 -294 0
-290 -487 294 0
-290 487 291 0
291 488 -292 0
291 -488 -293 0
-291 -488 293 0
-291 488 292 0
292 489 -129 0
292 -489 -137 0
-292 -489 137 0
-292 489 129 0
293 489 -141 0
293 -489 -173 0
-293 -489 173 0
-293 489 141 0
294 488 -295 0
-294 -488 0
-294 295 0
295 489 -174 0
295 -489 -176 0
-295 -489 176 0
-295 489 174 0
296 287 -297 0
-296 -287 0
-296 297 0
297 97 -298 0
297 -97 -301 0
-297 -97 301 0
-297 97 298 0
298 99 -299 0
298 -99 -300 0
-298 -99 300 0
-298 99 299 0
299 101 -120 0
299 -101 -122 0
-299 -101 122 0
-299 101 120 0
300 101 -123 0
300 -101 -126 0
-300 -101 126 0
-300 101 123 0
301 99 -302 0
-301 -99 0
-301 302 0
302 101 -127 0
302 -101 -128 0
-302 -101 128 0
-302 101 127 0
-303 304 310 -314 -315 0
-303 304 310 314 315 0
303 -310 0
303 314 -315 0
303 -304 0
303 -314 315 0
-304 -287 307 0
-304 -305 307 0
-304 219 307 0
304 -307 0
304 -219 287 305 0
305 82 -208 306 0
-305 -82 0
-305 208 0
-305 -306 0
-306 80 83 284 0
306 -80 0
306 -83 0
306 -284 0
307 308 -309 0
307 -308 309 0
-307 -308 -309 0
-307 308 309 0
308 -170 283 0
-308 170 0
-308 -283 0
309 -185 287 0
-309 185 0
-309 -287 0
310 -82 287 -311 0
310 287 -311 312 0
-310 311 0
-310 -287 0
-310 82 -312 0
311 97 -301 0
-311 -97 0
-311 301 0
312 306 -313 0
-312 -306 0
-312 313 0
313 487 -294 0
-313 -487 0
-313 294 0
314 -87 283 0
-314 87 0
-314 -283 0
315 -107 287 0
-315 107 0
-315 -287 0
-316 317 337 340 343 0
316 -343 0
316 -340 0
316 -317 0
316 -337 0
-317 318 320 322 323 0
-317 -318 -320 322 323 0
317 -322 0
317 318 -320 0
317 -323 0
317 -318 320 0
318 283 -319 0
-318 -283 0
-318 319 0
319 487 -113 0
319 -487 -171 0
-319 -487 171 0
-319 487 113 0
320 287 -321 0
-320 -287 0
-320 321 0
321 97 -182 0
321 -97 -186 0
-321 -97 186 0
-321 97 182 0
322 224 -265 287 0
322 -265 -283 287 0
-322 -287 0
-322 265 0
-322 -224 283 0
-323 324 -333 -335 0
-323 324 333 335 0
323 -324 0
323 -333 335 0
323 333 -335 0
324 -283 287 -329 0
324 287 325 -329 0
-324 329 0
-324 -287 0
-324 283 -325 0
325 487 -326 0
325 -487 -328 0
-325 -487 328 0
-325 487 326 0
326 -488 -292 0
326 488 -327 0
-326 488 327 0
-326 -488 292 0
327 -489 -115 0
327 489 -167 0
-327 489 167 0
-327 -489 115 0
328 488 -293 0
328 -488 -295 0
-328 -488 295 0
-328 488 293 0
329 97 -330 0
329 -97 -332 0
-329 -97 332 0
-329 97 330 0
330 -99 -299 0
330 99 -331 0
-330 99 331 0
-330 -99 299 0
331 -101 -119 0
331 101 -154 0
-331 101 154 0
-331 -101 119 0
332 99 -300 0
332 -99 -302 0
-332 -99 302 0
-332 99 300 0
333 283 -334 0
-333 -283 0
-333 334 0
334 487 -190 0
334 -487 -193 0
-334 -487 193 0
-334 487 190 0
335 287 -336 0
-335 -287 0
-335 336 0
336 97 -197 0
336 -97 -199 0
-336 -97 199 0
-336 97 197 0
337 -283 287 -339 0
337 287 338 -339 0
-337 339 0
-337 -287 0
-337 283 -338 0
338 487 -226 0
-338 -487 0
-338 226 0
339 97 -267 0
-339 -97 0
-339 267 0
340 -283 287 -342 0
340 287 341 -342 0
-340 342 0
-340 -287 0
-340 283 -341 0
341 487 -328 0
-341 -487 0
-341 328 0
342 97 -332 0
-342 -97 0
-342 332 0
-343 344 346 -348 -350 0
-343 -344 -346 -348 -350 0
-343 344 346 348 350 0
-343 -344 -346 348 350 0
343 344 -346 0
343 -344 346 0
343 348 -350 0
343 -348 350 0
344 283 -345 0
-344 -283 0
-344 345 0
345 487 -202 0
345 -487 -209 0
-345 -487 209 0
-345 487 202 0
346 287 -347 0
-346 -287 0
-346 347 0
347 97 -216 0
347 -97 -220 0
-347 -97 220 0
-347 97 216 0
348 283 -349 0
-348 -283 0
-348 349 0
349 487 -7 0
349 -487 -88 0
-349 -487 88 0
-349 487 7 0
350 287 -351 0
-350 -287 0
-350 351 0
351 97 -103 0
351 -97 -108 0
-351 -97 108 0
-351 97 103 0
-352 353 355 357 364 0
-352 -353 -355 357 364 0
352 -357 0
352 353 -355 0
352 -364 0
352 -353 355 0
353 486 76 -354 0
353 -486 76 -338 0
-353 -76 0
-353 -486 338 0
-353 486 354 0
354 -487 -225 0
354 487 -228 0
-354 487 228 0
-354 -487 225 0
355 95 106 -356 0
355 -95 106 -339 0
-355 -106 0
-355 95 356 0
-355 -95 339 0
356 97 -263 0
356 -97 -266 0
-356 -97 266 0
-356 97 263 0
357 358 -361 0
357 -358 361 0
-357 -358 -361 0
-357 358 361 0
358 486 76 -359 0
358 -486 76 -345 0
-358 -76 0
-358 -486 345 0
-358 486 359 0
359 -487 -205 0
359 487 -360 0
-359 487 360 0
-359 -487 205 0
360 -488 -229 0
360 488 -251 0
-360 488 251 0
-360 -488 229 0
361 -95 106 -347 0
361 95 106 -362 0
-361 -106 0
-361 95 362 0
-361 -95 347 0
-362 97 363 0
-362 -97 213 0
362 -97 -213 0
362 97 -363 0
-363 -99 264 0
-363 99 262 0
363 99 -262 0
363 -99 -264 0
-364 -365 -375 380 0
-364 365 375 380 0
364 -380 0
364 -365 375 0
364 365 -375 0
365 486 76 -366 0
365 -486 76 -341 0
-365 -76 0
-365 -486 341 0
-365 486 366 0
366 -487 -326 0
366 487 -367 0
-366 487 367 0
-366 -487 326 0
367 488 -368 0
367 -488 -374 0
-367 -488 374 0
-367 488 368 0
368 -489 -146 0
368 489 -369 0
-368 489 369 0
-368 -489 146 0
369 517 11 -370 0
369 -517 11 -142 0
-369 -11 0
-369 -517 142 0
-369 517 370 0
370 -518 -169 0
370 518 -371 0
-370 518 371 0
-370 -518 169 0
371 -519 -159 0
371 519 -372 0
-371 519 372 0
-371 -519 159 0
372 -520 -150 0
372 520 -373 0
-372 520 373 0
-372 -520 150 0
373 -481 521 0
373 -480 -521 0
-373 481 521 0
-373 480 -521 0
374 489 -156 0
374 -489 -163 0
-374 -489 163 0
-374 489 156 0
375 95 106 -376 0
375 -95 106 -342 0
-375 -106 0
-375 95 376 0
-375 -95 342 0
376 -97 -330 0
376 97 -377 0
-376 97 377 0
-376 -97 330 0
377 99 -378 0
377 -99 -379 0
-377 -99 379 0
-377 99 378 0
378 -101 -150 0
378 101 -373 0
-378 101 373 0
-378 -101 150 0
379 101 -151 0
379 -101 -153 0
-379 -101 153 0
-379 101 151 0
-380 381 384 -387 -401 0
-380 -381 -384 -387 -401 0
-380 381 384 387 401 0
-380 -381 -384 387 401 0
380 381 -384 0
380 -381 384 0
380 387 -401 0
380 -387 401 0
381 486 76 -382 0
381 -486 76 -313 0
-381 -76 0
-381 -486 313 0
-381 486 382 0
382 -487 -291 0
382 487 -383 0
-382 487 383 0
-382 -487 291 0
383 -488 -327 0
383 488 -374 0
-383 488 374 0
-383 -488 327 0
384 95 106 -385 0
384 -95 106 -311 0
-384 -106 0
-384 95 385 0
-384 -95 311 0
385 -97 -298 0
385 97 -386 0
-385 97 386 0
-385 -97 298 0
386 -99 -331 0
386 99 -379 0
-386 99 379 0
-386 -99 331 0
387 486 76 -388 0
387 -486 76 -290 0
-387 -76 0
-387 -486 290 0
-387 486 388 0
388 -487 -383 0
388 487 -389 0
-388 487 389 0
-388 -487 383 0
389 -488 -368 0
389 488 -390 0
-389 488 390 0
-389 -488 368 0
390 489 -391 0
390 -489 -397 0
-390 -489 397 0
-390 489 391 0
391 517 11 -392 0
391 -517 11 -130 0
-391 -11 0
-391 517 392 0
-391 -517 130 0
-392 -518 158 0
-392 518 393 0
392 -518 -158 0
392 518 -393 0
-393 519 394 0
-393 -519 372 0
393 -519 -372 0
393 519 -394 0
394 520 -395 0
394 -520 -396 0
-394 -520 396 0
-394 520 395 0
395 -485 521 0
395 -484 -521 0
-395 485 521 0
-395 484 -521 0
396 -483 521 0
396 -482 -521 0
-396 483 521 0
-396 482 -521 0
397 517 11 -398 0
397 -517 11 -138 0
-397 -11 0
-397 517 398 0
-397 -517 138 0
-398 -518 165 0
-398 518 399 0
398 -518 -165 0
398 518 -399 0
-399 519 400 0
-399 -519 149 0
399 -519 -149 0
399 519 -400 0
400 -520 -373 0
400 520 -396 0
-400 520 396 0
-400 -520 373 0
401 -95 106 -297 0
401 95 106 -402 0
-401 -106 0
-401 95 402 0
-401 -95 297 0
-402 97 403 0
-402 -97 386 0
402 -97 -386 0
402 97 -403 0
-403 99 404 0
-403 -99 378 0
403 -99 -378 0
403 99 -404 0
404 101 -395 0
404 -101 -396 0
-404 -101 396 0
-404 101 395 0
-405 406 411 -416 -426 0
-405 -406 -411 -416 -426 0
-405 406 411 416 426 0
-405 -406 -411 416 426 0
405 406 -411 0
405 -406 411 0
405 416 -426 0
405 -416 426 0
406 486 76 -407 0
406 -486 76 -349 0
-406 -76 0
-406 -486 349 0
-406 486 407 0
407 -487 -50 0
407 487 -408 0
-407 487 408 0
-407 -487 50 0
408 488 -409 0
408 -488 -410 0
-408 -488 410 0
-408 488 409 0
409 489 -237 0
409 -489 -252 0
-409 -489 252 0
-409 489 237 0
410 -489 -230 0
410 489 -255 0
-410 489 255 0
-410 -489 230 0
411 -95 106 -351 0
411 95 106 -412 0
-411 -106 0
-411 95 412 0
-411 -95 351 0
-412 97 413 0
-412 -97 98 0
412 -97 -98 0
412 97 -413 0
-413 99 414 0
-413 -99 415 0
413 99 -414 0
413 -99 -415 0
-414 101 242 0
-414 -101 241 0
414 -101 -241 0
414 101 -242 0
415 -101 -234 0
415 101 -244 0
-415 101 244 0
-415 -101 234 0
416 486 76 -417 0
416 -486 76 -319 0
-416 -76 0
-416 -486 319 0
-416 486 417 0
417 -487 -144 0
417 487 -418 0
-417 487 418 0
-417 -487 144 0
418 488 -419 0
418 -488 -425 0
-418 -488 425 0
-418 488 419 0
419 -489 -391 0
419 489 -420 0
-419 489 420 0
-419 -489 391 0
420 517 11 -421 0
420 -517 11 -116 0
-420 -11 0
-420 517 421 0
-420 -517 116 0
-421 -518 148 0
-421 518 422 0
421 -518 -148 0
421 518 -422 0
-422 -519 400 0
-422 519 423 0
422 -519 -400 0
422 519 -423 0
-423 520 424 0
-423 -520 395 0
423 -520 -395 0
423 520 -424 0
424 -487 521 0
424 -486 -521 0
-424 487 521 0
-424 486 -521 0
425 -489 -369 0
425 489 -397 0
-425 489 397 0
-425 -489 369 0
426 -95 106 -321 0
426 95 106 -427 0
-426 -106 0
-426 95 427 0
-426 -95 321 0
-427 97 428 0
-427 -97 179 0
427 -97 -179 0
427 97 -428 0
-428 99 429 0
-428 -99 430 0
428 99 -429 0
428 -99 -430 0
-429 101 424 0
-429 -101 395 0
429 -101 -395 0
429 101 -424 0
430 -101 -373 0
430 101 -396 0
-430 101 396 0
-430 -101 373 0
-431 -432 -435 438 0
-431 432 435 438 0
431 -438 0
431 -432 435 0
431 432 -435 0
432 486 76 -433 0
432 -486 76 -285 0
-432 -76 0
-432 -486 285 0
-432 486 433 0
433 -487 -272 0
433 487 -434 0
-433 487 434 0
-433 -487 272 0
434 -488 -51 0
434 488 -410 0
-434 488 410 0
-434 -488 51 0
435 -95 106 -288 0
435 95 106 -436 0
-435 -106 0
-435 95 436 0
-435 -95 288 0
-436 97 437 0
-436 -97 277 0
436 -97 -277 0
436 97 -437 0
-437 99 415 0
-437 -99 100 0
437 -99 -100 0
437 99 -415 0
-438 448 452 455 0
-438 -439 -452 -455 0
-438 -439 452 455 0
-438 448 -452 -455 0
438 452 -455 0
438 -452 455 0
438 439 -448 0
439 486 76 -440 0
439 -486 76 -325 0
-439 -76 0
-439 -486 325 0
-439 486 440 0
440 -487 -367 0
440 487 -441 0
-440 487 441 0
-440 -487 367 0
441 -488 -390 0
441 488 -442 0
-441 -488 390 0
-441 488 442 0
-442 -489 420 0
-442 489 443 0
-442 489 -11 0
442 -489 -420 0
442 489 11 -443 0
-443 517 444 0
-443 -517 168 0
443 -517 -168 0
443 517 -444 0
444 -518 -371 0
444 518 -445 0
-444 518 445 0
-444 -518 371 0
445 -519 -394 0
445 519 -446 0
-445 519 446 0
-445 -519 394 0
446 -520 -424 0
446 520 -447 0
-446 520 447 0
-446 -520 424 0
447 -489 521 0
447 -488 -521 0
-447 489 521 0
-447 488 -521 0
448 -95 106 -329 0
448 95 106 -449 0
-448 -106 0
-448 95 449 0
-448 -95 329 0
-449 97 450 0
-449 -97 377 0
449 -97 -377 0
449 97 -450 0
-450 99 451 0
-450 -99 404 0
450 -99 -404 0
450 99 -451 0
-451 101 447 0
-451 -101 424 0
451 -101 -424 0
451 101 -447 0
452 486 76 -453 0
452 -486 76 -334 0
-452 -76 0
-452 -486 334 0
-452 486 453 0
453 -487 -191 0
453 487 -454 0
-453 487 454 0
-453 -487 191 0
454 -488 -145 0
454 488 -425 0
-454 488 425 0
-454 -488 145 0
455 -95 106 -336 0
455 95 106 -456 0
-455 -106 0
-455 95 456 0
-455 -95 336 0
-456 97 457 0
-456 -97 196 0
456 -97 -196 0
456 97 -457 0
-457 99 430 0
-457 -99 180 0
457 -99 -180 0
457 99 -430 0
-522 0
2 0

